outputs/case_19.model.txt
regulatory_exception_for_order_change = False
performance_fee_regulated = True
civil_liability_behavior_authorized = False
subdelegation_or_transfer = False
regulatory_exception_for_subdelegation = False
improper_order_account_change = False
control_record_retention_period = False
profit_loss_sharing_agreement = False
opposite_side_trading = True
report_has_reasonable_basis = True
trading_through_central_market = True
not_intentional_opposite_trading = True
investment_decision_follow_report = True
reasonable_explanation_provided = True
use_of_duty_info_for_own_or_others_trading = False
use_customer_account_for_own_or_others_trading = False
other_harmful_behavior = False
damaging_customer_interest_trading = False
internal_control_system_established = True
other_related_data_protection = True
internal_control_system_operated_according_law = True
transaction_data_protection = True
internal_control_system_change_approved_and_recorded = True
restricted_person_trading_during_holding_period = False
prohibited_behavior_level_5 = True
full_discretionary_restricted_person_trading_during_holding_period = False
prohibited_behavior_level_6 = True
manipulate_security_price = False
regulatory_penalty_imposed = True
good_faith_principle = True
fraudulent_behavior = False
not_violate_law_or_contract = True
public_promotion_of_specific_security = False
prohibited_behavior_level_1 = True
analysis_reasonable_basis = True
violation_penalties = True
personnel_prohibited_behavior = True
investment_decision_record_and_review = True
not_violate_article_19_1 = True
other_harmful_to_beneficiaries_or_business = False
execution_recorded = True
duty_of_care = True
prohibited_behavior_all = True
prohibited_behavior_level_7 = True
internal_control_system_built = True
transfer_proxy_voting_rights_for_money = False
internal_control_change_recorded = True
prohibited_behavior_level_4 = True
provide_specific_benefits_to_promote = False
personnel_regulatory_penalty_imposed = True
control_operation_recorded = True
prohibited_behavior_level_2 = True
full_discretionary_investment_prohibited_behaviors = True
business_operated_according_internal_control_and_law = True
fiduciary_duty_compliance = True
personal_data_protection = True
full_discretionary_investment_restricted_trading = True
not_violate_article_59 = True
personnel_violation_penalties = True
personnel_rules_complied = True
internal_control_established_and_executed = True
not_return_commission_to_fund = False
confidentiality_obligation = True
internal_control_change_approved_by_board = True
internal_control_system_executed = True
self_or_others_benefit_trading = False
trading_declaration_made = True
prohibited_behavior_level_9 = True
improper_account_order_change = False
personnel_prohibited_specific_behaviors = True
prohibited_behavior_level_8 = True
personnel_qualification_compliance = True
monthly_review_submitted = True
personnel_authorized_behavior_presumption = False
agent_for_others_investment = False
trading_declaration_obligation = True
restricted_trading_period_prohibition = True
liability_for_violation = True
leak_confidential_info = False
investment_decision_based_on_analysis = True
duty_of_loyalty = True
unreasonable_commission_payment = False
internal_control_change_done_within_deadline = True
penalty = False
prohibited_behavior_level_3 = True